clear
variable 		fname index MWCNT.20.0.10.0.60.data     # do not change
variable 		simname index MWCNT.300K.1            # need to change temperature 300K, strain rate 1, wich represent 1e-3  1/ps 
log				${simname}.log.lammps

#LAMMPS input file
# tensile: fixed at one end , pulling other end z-direction


#######-----------------initialization------------------------------------------------

variable		Test_Temp	equal 300         # change temperature 300, 800, .......K
variable		Srate equal  01e-3	      # change 
variable		Def_Run equal 120000      # change
variable		Equi_Run equal 15000

variable		myseed equal 12345
variable		atomrate equal 100
variable		time_step equal 0.002
variable		time_equ equal 100
variable 		tdamp equal "v_time_step*100"
variable		pdamp equal "v_time_step*1000"
variable		dump_freq equal "v_Def_Run/200"

units          metal
dimension      3
boundary       s s s
atom_style     atomic


# --------------------Atom Definition-------------------------------

read_data      		${fname}


#--------------------------potential------------------------------------------

pair_style		rebo
pair_coeff		* * CH.rebo C 


# Groping of atoms

variable 	zl1 equal "zlo+3"
variable 	zh1 equal "zhi-3"
print		"zl1 : ${zl1} , zh1 : ${zh1} "

# define groups
region		Rinner cylinder z 2.6 4.75 6 -8 EDGE 

region		Rwo cylinder z 2.6 4.75 9 EDGE ${zl1}
region		Rwi cylinder z 2.6 4.75 6 EDGE ${zl1}
region		Rpo cylinder z 2.6 4.75 9 ${zh1} EDGE
region		Rpi cylinder z 2.6 4.75 6 ${zh1} EDGE


group		Ginner region Rinner
group		Gwo region Rwo
group		Gwi region Rwi	
group		Gwall subtract Gwo Gwi						# pulling  wall in -ve z direct
group		Gfixed region Rpo							#fixed wall

group		Gmobile subtract all Gwall Gfixed 



#-------------------------------Mininization-------------------------------


min_style 			cg
minimize			 1.0e-5 1.0e-8 10000 100000

print 		"MINIMIZATION IS DONE"

# -----------------------Equilibtration----Settings----------------------

reset_timestep 		0 
timestep       		 ${time_step}


velocity       all create ${Test_Temp} 4928459 rot yes mom yes dist gaussian
fix            	2 all nve	 
fix 			3 all langevin ${Test_Temp} ${Test_Temp} ${tdamp} 48264  

thermo 		100 
thermo_style 	custom step etotal pe  temp vol lx ly lz press pxx pyy pzz 

variable 		time equal "step*v_time_step"
variable 		TE equal "-etotal"
variable		PE equal "-pe"
variable		e4 equal "temp"
variable		e5 equal "-pzz"


fix 			def1 all print 100 "${time} ${TE} ${PE} ${e4} ${e5} " file ${simname}.Equi.txt screen no

dump     	 	1 all custom 100  ${simname}.Equi.lammpstrj id x y z ix iy iz
dump_modify 	1 element C

run  ${Equi_Run}

unfix	2
unfix 	3
unfix	def1
undump	1
print	"Equlibration is Done"

# ----------------------defrormationnn-----------------------------------------
run 			0

reset_timestep		0
timestep			${time_step}

#storing equilibrated parameters


variable 	p3 equal "lz"
variable 	L0 equal ${p3}				#length of CNT
print "Initial length of CNT is, L0:${L0}"
variable 	strain equal "(lz - v_L0)/v_L0"
variable	load_speed	equal -${Srate}*${L0}			# equivalent strain rate based on Load speed


# Method 1 : pulling one side

velocity	Gfixed set 0 0 0
fix  		fixedwall Gfixed setforce 0 0 0
fix 		fixpull Gwall setforce 0 0 0
fix          1 Gmobile nvt temp ${Test_Temp} ${Test_Temp} ${tdamp}
fix 		2 Gwall move linear 0 0 ${load_speed} units box			# load speed= L0*strain rate A/ps 
fix 		fixTemp Gmobile langevin ${Test_Temp} ${Test_Temp} 100 904297 


variable 	d1 equal "step*v_time_step"
variable 	d3 equal "etotal"
variable	d4 equal "-pe"
variable 	d5 equal "temp"
variable	d6 equal "v_strain"
variable 	d10 equal "-pzz/10"

fix 			def2 all print ${dump_freq} "${d1} ${d3} ${d4} ${d5} ${d6} ${d10} " file ${simname}.Deform.txt screen no

dump			2 all custom ${dump_freq} ${simname}.Deform.lammpstrj id x y z ix iy iz 
dump_modify		 2 element C

thermo				1000
thermo_style		custom step etotal pe  vol temp lx ly lz v_strain press pxx pyy pzz  


run					${Def_Run}

# SIMULATION DONE
print "All done"



